NAME: line_30_9
TYPE: TSP
COMMENT: line_30_9
DIMENSION: 30
EDGE_WEIGHT_TYPE: EUC_2D
NODE_COORD_SECTION
1 0.0 136.0
2 0.0 51.0
3 0.0 57.0
4 0.0 38.0
5 0.0 179.0
6 0.0 102.0
7 0.0 64.0
8 0.0 5.0
9 0.0 251.0
10 0.0 78.0
11 0.0 46.0
12 0.0 88.0
13 0.0 242.0
14 0.0 182.0
15 0.0 81.0
16 0.0 220.0
17 0.0 64.0
18 0.0 26.0
19 0.0 165.0
20 0.0 212.0
21 0.0 176.0
22 0.0 238.0
23 0.0 248.0
24 0.0 153.0
25 0.0 72.0
26 0.0 72.0
27 0.0 60.0
28 0.0 67.0
29 0.0 77.0
30 0.0 219.0
